param n := 120;
param c := 10000
param : V : p w :=
   0	 468	 458
   1	 262	 252
   2	 300	 290
   3	 507	 497
   4	 260	 250
   5	 263	 253
   6	 456	 446
   7	 286	 276
   8	 288	 278
   9	 397	 387
  10	 284	 274
  11	 349	 339
  12	 472	 462
  13	 278	 268
  14	 280	 270
  15	 482	 472
  16	 268	 258
  17	 280	 270
  18	 387	 377
  19	 286	 276
  20	 357	 347
  21	 494	 484
  22	 263	 253
  23	 273	 263
  24	 500	 490
  25	 262	 252
  26	 268	 258
  27	 424	 414
  28	 260	 250
  29	 346	 336
  30	 503	 493
  31	 263	 253
  32	 264	 254
  33	 480	 470
  34	 267	 257
  35	 283	 273
  36	 413	 403
  37	 272	 262
  38	 345	 335
  39	 443	 433
  40	 283	 273
  41	 304	 294
  42	 385	 375
  43	 286	 276
  44	 359	 349
  45	 432	 422
  46	 286	 276
  47	 312	 302
  48	 456	 446
  49	 284	 274
  50	 290	 280
  51	 362	 352
  52	 328	 318
  53	 340	 330
  54	 412	 402
  55	 279	 269
  56	 339	 329
  57	 446	 436
  58	 264	 254
  59	 320	 310
  60	 367	 357
  61	 278	 268
  62	 385	 375
  63	 420	 410
  64	 272	 262
  65	 338	 328
  66	 362	 352
  67	 285	 275
  68	 383	 373
  69	 433	 423
  70	 272	 262
  71	 325	 315
  72	 436	 426
  73	 276	 266
  74	 318	 308
  75	 398	 388
  76	 261	 251
  77	 371	 361
  78	 396	 386
  79	 282	 272
  80	 352	 342
  81	 384	 374
  82	 264	 254
  83	 382	 372
  84	 418	 408
  85	 297	 287
  86	 315	 305
  87	 452	 442
  88	 262	 252
  89	 316	 306
  90	 374	 364
  91	 312	 302
  92	 344	 334
  93	 373	 363
  94	 275	 265
  95	 382	 372
  96	 406	 396
  97	 302	 292
  98	 322	 312
  99	 495	 485
 100	 265	 255
 101	 270	 260
 102	 446	 436
 103	 266	 256
 104	 318	 308
 105	 455	 445
 106	 280	 270
 107	 295	 285
 108	 429	 419
 109	 285	 275
 110	 316	 306
 111	 437	 427
 112	 260	 250
 113	 333	 323
 114	 500	 490
 115	 262	 252
 116	 268	 258
 117	 506	 496
 118	 260	 250
 119	 264	 254
;

set E :=
   0	   1
   0	   2
   0	   5
   0	   7
   0	  11
   0	  13
   0	  14
   0	  16
   0	  17
   0	  19
   0	  20
   0	  23
   0	  26
   0	  27
   0	  30
   0	  34
   0	  35
   0	  36
   0	  52
   0	  53
   0	  54
   0	  57
   0	  60
   0	  62
   0	  63
   0	  64
   0	  66
   0	  75
   0	  76
   0	  77
   0	  81
   0	  82
   0	  86
   0	  89
   0	  90
   0	  92
   0	  95
   0	  96
   0	 102
   0	 103
   0	 104
   0	 105
   0	 106
   0	 108
   0	 109
   0	 110
   0	 112
   0	 115
   0	 117
   0	 118
   0	 119
   1	   2
   1	   3
   1	   5
   1	   6
   1	  11
   1	  14
   1	  19
   1	  28
   1	  33
   1	  36
   1	  40
   1	  41
   1	  42
   1	  44
   1	  48
   1	  50
   1	  51
   1	  52
   1	  55
   1	  56
   1	  61
   1	  68
   1	  72
   1	  75
   1	  76
   1	  82
   1	  85
   1	  86
   1	  88
   1	  90
   1	  91
   1	  93
   1	  95
   1	  97
   1	  98
   1	 100
   1	 102
   1	 105
   1	 112
   1	 113
   1	 114
   1	 115
   1	 118
   2	   3
   2	   4
   2	   5
   2	   7
   2	  14
   2	  15
   2	  17
   2	  19
   2	  20
   2	  21
   2	  25
   2	  26
   2	  28
   2	  29
   2	  30
   2	  31
   2	  34
   2	  37
   2	  39
   2	  41
   2	  44
   2	  46
   2	  52
   2	  55
   2	  64
   2	  67
   2	  69
   2	  70
   2	  73
   2	  76
   2	  82
   2	  83
   2	  85
   2	  90
   2	  91
   2	  92
   2	  95
   2	  98
   2	 106
   2	 107
   2	 112
   2	 113
   2	 114
   2	 117
   2	 118
   3	   4
   3	   6
   3	   8
   3	   9
   3	  10
   3	  11
   3	  12
   3	  15
   3	  16
   3	  18
   3	  21
   3	  22
   3	  27
   3	  29
   3	  30
   3	  31
   3	  36
   3	  41
   3	  43
   3	  49
   3	  50
   3	  51
   3	  57
   3	  58
   3	  60
   3	  61
   3	  62
   3	  64
   3	  67
   3	  68
   3	  71
   3	  73
   3	  76
   3	  77
   3	  78
   3	  80
   3	  82
   3	  83
   3	  84
   3	  88
   3	  89
   3	  90
   3	  93
   3	  97
   3	  99
   3	 101
   3	 102
   3	 105
   3	 107
   3	 108
   3	 109
   3	 110
   3	 112
   3	 113
   3	 114
   4	   9
   4	  13
   4	  14
   4	  16
   4	  19
   4	  20
   4	  21
   4	  25
   4	  26
   4	  29
   4	  30
   4	  31
   4	  33
   4	  37
   4	  39
   4	  41
   4	  42
   4	  44
   4	  48
   4	  49
   4	  50
   4	  51
   4	  54
   4	  56
   4	  57
   4	  58
   4	  59
   4	  60
   4	  61
   4	  67
   4	  68
   4	  71
   4	  72
   4	  73
   4	  74
   4	  76
   4	  77
   4	  78
   4	  80
   4	  84
   4	  87
   4	  89
   4	  93
   4	  97
   4	 104
   4	 105
   4	 111
   4	 114
   4	 119
   5	   7
   5	   8
   5	   9
   5	  10
   5	  13
   5	  18
   5	  21
   5	  25
   5	  29
   5	  31
   5	  32
   5	  33
   5	  34
   5	  38
   5	  39
   5	  40
   5	  42
   5	  43
   5	  44
   5	  46
   5	  47
   5	  48
   5	  49
   5	  52
   5	  54
   5	  56
   5	  60
   5	  67
   5	  68
   5	  69
   5	  70
   5	  72
   5	  75
   5	  83
   5	  86
   5	  87
   5	  89
   5	  90
   5	  91
   5	  94
   5	  98
   5	  99
   5	 102
   5	 107
   5	 111
   5	 113
   5	 117
   5	 119
   6	   9
   6	  10
   6	  11
   6	  12
   6	  15
   6	  16
   6	  17
   6	  18
   6	  21
   6	  24
   6	  30
   6	  32
   6	  36
   6	  37
   6	  40
   6	  42
   6	  43
   6	  45
   6	  46
   6	  47
   6	  52
   6	  54
   6	  55
   6	  56
   6	  58
   6	  60
   6	  61
   6	  62
   6	  64
   6	  66
   6	  68
   6	  69
   6	  70
   6	  72
   6	  73
   6	  75
   6	  78
   6	  81
   6	  83
   6	  85
   6	  93
   6	  94
   6	  95
   6	  98
   6	 102
   6	 104
   6	 106
   6	 107
   6	 108
   6	 109
   6	 110
   6	 111
   6	 114
   7	  10
   7	  11
   7	  15
   7	  16
   7	  18
   7	  23
   7	  25
   7	  27
   7	  29
   7	  32
   7	  38
   7	  41
   7	  43
   7	  45
   7	  46
   7	  47
   7	  48
   7	  49
   7	  50
   7	  52
   7	  54
   7	  55
   7	  59
   7	  65
   7	  68
   7	  69
   7	  72
   7	  73
   7	  74
   7	  76
   7	  83
   7	  86
   7	  87
   7	  88
   7	  89
   7	  92
   7	  94
   7	  96
   7	  98
   7	  99
   7	 107
   7	 108
   7	 109
   7	 110
   7	 119
   8	  13
   8	  16
   8	  17
   8	  19
   8	  22
   8	  26
   8	  28
   8	  32
   8	  35
   8	  39
   8	  42
   8	  50
   8	  51
   8	  53
   8	  55
   8	  57
   8	  58
   8	  59
   8	  60
   8	  61
   8	  64
   8	  67
   8	  70
   8	  71
   8	  73
   8	  74
   8	  76
   8	  78
   8	  79
   8	  80
   8	  81
   8	  82
   8	  83
   8	  96
   8	  97
   8	  98
   8	 105
   8	 110
   8	 111
   8	 113
   8	 114
   8	 115
   8	 116
   8	 118
   9	  10
   9	  14
   9	  17
   9	  25
   9	  26
   9	  27
   9	  28
   9	  29
   9	  31
   9	  32
   9	  37
   9	  38
   9	  39
   9	  40
   9	  43
   9	  45
   9	  48
   9	  49
   9	  52
   9	  56
   9	  57
   9	  58
   9	  59
   9	  60
   9	  62
   9	  63
   9	  64
   9	  67
   9	  69
   9	  73
   9	  75
   9	  77
   9	  81
   9	  82
   9	  83
   9	  89
   9	  90
   9	  95
   9	  96
   9	  97
   9	  98
   9	  99
   9	 102
   9	 105
   9	 108
   9	 109
   9	 110
   9	 111
   9	 112
   9	 114
   9	 115
   9	 116
   9	 118
  10	  13
  10	  16
  10	  19
  10	  21
  10	  23
  10	  24
  10	  25
  10	  26
  10	  34
  10	  35
  10	  38
  10	  40
  10	  41
  10	  42
  10	  44
  10	  51
  10	  53
  10	  55
  10	  57
  10	  59
  10	  63
  10	  69
  10	  74
  10	  77
  10	  81
  10	  82
  10	  83
  10	  90
  10	  91
  10	  98
  10	 103
  10	 104
  10	 105
  10	 106
  10	 107
  10	 108
  10	 110
  10	 118
  11	  15
  11	  17
  11	  20
  11	  24
  11	  26
  11	  28
  11	  30
  11	  33
  11	  34
  11	  40
  11	  46
  11	  47
  11	  48
  11	  54
  11	  55
  11	  62
  11	  64
  11	  65
  11	  69
  11	  72
  11	  76
  11	  80
  11	  83
  11	  85
  11	  87
  11	  89
  11	  93
  11	  94
  11	  96
  11	  97
  11	 100
  11	 103
  11	 104
  11	 108
  11	 112
  11	 113
  11	 114
  11	 115
  11	 116
  11	 118
  12	  13
  12	  17
  12	  20
  12	  22
  12	  24
  12	  25
  12	  26
  12	  29
  12	  30
  12	  32
  12	  36
  12	  37
  12	  41
  12	  42
  12	  44
  12	  50
  12	  53
  12	  54
  12	  55
  12	  61
  12	  62
  12	  65
  12	  66
  12	  71
  12	  74
  12	  75
  12	  77
  12	  80
  12	  87
  12	  88
  12	  89
  12	  90
  12	  92
  12	  94
  12	  95
  12	  96
  12	  97
  12	 100
  12	 101
  12	 110
  12	 111
  12	 116
  13	  14
  13	  15
  13	  17
  13	  19
  13	  20
  13	  27
  13	  30
  13	  31
  13	  33
  13	  34
  13	  35
  13	  38
  13	  39
  13	  43
  13	  45
  13	  46
  13	  47
  13	  48
  13	  57
  13	  59
  13	  62
  13	  64
  13	  65
  13	  68
  13	  74
  13	  77
  13	  81
  13	  83
  13	  86
  13	  87
  13	  89
  13	  90
  13	  92
  13	  93
  13	 100
  13	 103
  13	 105
  13	 106
  13	 110
  13	 111
  13	 114
  13	 115
  13	 116
  13	 118
  14	  19
  14	  30
  14	  33
  14	  35
  14	  38
  14	  39
  14	  42
  14	  46
  14	  47
  14	  48
  14	  51
  14	  53
  14	  61
  14	  62
  14	  65
  14	  66
  14	  67
  14	  71
  14	  73
  14	  75
  14	  78
  14	  84
  14	  85
  14	  87
  14	  90
  14	  92
  14	  94
  14	  95
  14	  96
  14	  99
  14	 102
  14	 103
  14	 104
  14	 111
  14	 112
  14	 113
  14	 114
  14	 117
  15	  16
  15	  19
  15	  20
  15	  28
  15	  32
  15	  42
  15	  43
  15	  44
  15	  45
  15	  46
  15	  48
  15	  51
  15	  53
  15	  54
  15	  58
  15	  60
  15	  63
  15	  64
  15	  66
  15	  67
  15	  73
  15	  77
  15	  80
  15	  81
  15	  83
  15	  90
  15	  91
  15	  94
  15	  97
  15	 100
  15	 103
  15	 105
  15	 106
  15	 107
  15	 108
  15	 111
  15	 113
  15	 115
  15	 117
  16	  19
  16	  24
  16	  28
  16	  30
  16	  31
  16	  32
  16	  33
  16	  34
  16	  35
  16	  39
  16	  42
  16	  48
  16	  52
  16	  54
  16	  60
  16	  61
  16	  65
  16	  67
  16	  75
  16	  78
  16	  87
  16	  90
  16	  92
  16	  95
  16	  96
  16	  97
  16	 101
  16	 103
  16	 105
  16	 107
  16	 109
  16	 112
  16	 114
  16	 115
  16	 118
  17	  21
  17	  22
  17	  24
  17	  25
  17	  27
  17	  30
  17	  32
  17	  38
  17	  40
  17	  42
  17	  43
  17	  44
  17	  45
  17	  46
  17	  50
  17	  52
  17	  55
  17	  56
  17	  58
  17	  62
  17	  71
  17	  73
  17	  75
  17	  80
  17	  81
  17	  82
  17	  85
  17	  87
  17	  93
  17	  95
  17	  96
  17	 104
  17	 115
  17	 118
  17	 119
  18	  20
  18	  22
  18	  23
  18	  27
  18	  29
  18	  30
  18	  35
  18	  39
  18	  40
  18	  41
  18	  43
  18	  44
  18	  45
  18	  50
  18	  52
  18	  53
  18	  61
  18	  65
  18	  66
  18	  67
  18	  71
  18	  75
  18	  78
  18	  82
  18	  85
  18	  86
  18	  88
  18	  89
  18	  92
  18	  94
  18	  97
  18	  98
  18	 101
  18	 102
  18	 103
  18	 108
  18	 109
  18	 110
  18	 112
  18	 113
  18	 114
  18	 115
  18	 116
  18	 118
  18	 119
  19	  22
  19	  23
  19	  24
  19	  27
  19	  31
  19	  33
  19	  34
  19	  38
  19	  41
  19	  42
  19	  43
  19	  45
  19	  48
  19	  50
  19	  51
  19	  53
  19	  63
  19	  64
  19	  67
  19	  69
  19	  81
  19	  84
  19	  85
  19	  86
  19	  91
  19	  92
  19	  97
  19	  98
  19	  99
  19	 100
  19	 102
  19	 106
  19	 112
  19	 116
  19	 117
  19	 118
  20	  33
  20	  36
  20	  38
  20	  42
  20	  43
  20	  44
  20	  46
  20	  48
  20	  49
  20	  50
  20	  54
  20	  55
  20	  56
  20	  61
  20	  62
  20	  65
  20	  66
  20	  67
  20	  69
  20	  71
  20	  73
  20	  74
  20	  78
  20	  81
  20	  82
  20	  86
  20	  88
  20	  92
  20	  93
  20	  98
  20	 101
  20	 102
  20	 103
  20	 104
  20	 105
  20	 106
  20	 107
  20	 109
  20	 110
  20	 111
  20	 112
  20	 114
  21	  25
  21	  26
  21	  29
  21	  30
  21	  31
  21	  32
  21	  33
  21	  34
  21	  36
  21	  37
  21	  38
  21	  42
  21	  50
  21	  54
  21	  57
  21	  60
  21	  61
  21	  65
  21	  67
  21	  72
  21	  76
  21	  77
  21	  78
  21	  80
  21	  82
  21	  83
  21	  84
  21	  85
  21	  87
  21	  88
  21	  89
  21	  94
  21	  95
  21	  96
  21	  98
  21	 100
  21	 103
  21	 105
  21	 106
  21	 107
  21	 109
  21	 111
  21	 112
  21	 113
  21	 119
  22	  24
  22	  36
  22	  37
  22	  43
  22	  44
  22	  47
  22	  54
  22	  55
  22	  59
  22	  60
  22	  61
  22	  62
  22	  63
  22	  67
  22	  68
  22	  69
  22	  72
  22	  73
  22	  74
  22	  77
  22	  80
  22	  86
  22	  90
  22	  91
  22	  94
  22	  95
  22	  97
  22	  98
  22	  99
  22	 101
  22	 103
  22	 104
  22	 105
  22	 106
  22	 108
  22	 109
  22	 111
  22	 114
  22	 116
  22	 117
  23	  24
  23	  25
  23	  30
  23	  31
  23	  32
  23	  33
  23	  34
  23	  36
  23	  41
  23	  42
  23	  49
  23	  53
  23	  55
  23	  56
  23	  58
  23	  59
  23	  60
  23	  62
  23	  65
  23	  67
  23	  71
  23	  72
  23	  74
  23	  75
  23	  79
  23	  80
  23	  84
  23	  85
  23	  91
  23	  92
  23	  93
  23	  97
  23	  99
  23	 100
  23	 103
  23	 108
  23	 109
  23	 110
  23	 116
  23	 118
  24	  28
  24	  33
  24	  34
  24	  43
  24	  45
  24	  46
  24	  48
  24	  49
  24	  53
  24	  59
  24	  60
  24	  63
  24	  70
  24	  74
  24	  77
  24	  79
  24	  80
  24	  86
  24	  87
  24	  88
  24	  89
  24	  91
  24	  92
  24	  93
  24	  96
  24	  97
  24	 102
  24	 103
  24	 106
  24	 107
  24	 108
  24	 109
  24	 110
  24	 112
  24	 114
  24	 117
  24	 119
  25	  28
  25	  29
  25	  30
  25	  31
  25	  33
  25	  34
  25	  37
  25	  40
  25	  41
  25	  47
  25	  48
  25	  49
  25	  50
  25	  51
  25	  52
  25	  58
  25	  59
  25	  65
  25	  68
  25	  73
  25	  76
  25	  77
  25	  80
  25	  81
  25	  90
  25	  92
  25	  95
  25	  96
  25	 103
  25	 104
  25	 105
  25	 107
  25	 111
  25	 112
  25	 113
  25	 115
  25	 117
  26	  30
  26	  31
  26	  34
  26	  35
  26	  36
  26	  37
  26	  39
  26	  40
  26	  41
  26	  42
  26	  43
  26	  44
  26	  48
  26	  51
  26	  53
  26	  69
  26	  70
  26	  71
  26	  76
  26	  78
  26	  85
  26	  86
  26	  88
  26	  90
  26	  93
  26	  94
  26	  95
  26	  97
  26	  99
  26	 101
  26	 104
  26	 105
  26	 106
  26	 107
  26	 110
  26	 113
  26	 118
  27	  32
  27	  33
  27	  36
  27	  40
  27	  50
  27	  52
  27	  53
  27	  54
  27	  58
  27	  59
  27	  60
  27	  62
  27	  64
  27	  65
  27	  66
  27	  67
  27	  69
  27	  71
  27	  77
  27	  78
  27	  82
  27	  84
  27	  88
  27	  89
  27	  90
  27	  91
  27	  93
  27	 101
  27	 105
  27	 108
  27	 109
  27	 110
  27	 112
  27	 115
  27	 116
  27	 117
  27	 119
  28	  35
  28	  37
  28	  40
  28	  41
  28	  42
  28	  46
  28	  47
  28	  48
  28	  50
  28	  52
  28	  57
  28	  58
  28	  59
  28	  60
  28	  63
  28	  64
  28	  67
  28	  68
  28	  70
  28	  72
  28	  73
  28	  74
  28	  76
  28	  79
  28	  80
  28	  81
  28	  83
  28	  86
  28	  90
  28	  92
  28	  93
  28	  95
  28	  99
  28	 100
  28	 101
  28	 102
  28	 104
  28	 106
  28	 107
  28	 110
  28	 112
  28	 113
  28	 114
  28	 118
  29	  32
  29	  34
  29	  36
  29	  42
  29	  45
  29	  46
  29	  48
  29	  51
  29	  53
  29	  54
  29	  60
  29	  62
  29	  63
  29	  64
  29	  65
  29	  66
  29	  67
  29	  68
  29	  75
  29	  76
  29	  80
  29	  82
  29	  83
  29	  84
  29	  86
  29	  87
  29	  88
  29	  89
  29	  90
  29	  91
  29	  92
  29	  94
  29	  95
  29	  97
  29	 101
  29	 102
  29	 103
  29	 104
  29	 105
  29	 108
  29	 109
  29	 114
  29	 115
  29	 117
  29	 118
  29	 119
  30	  32
  30	  42
  30	  43
  30	  44
  30	  49
  30	  52
  30	  54
  30	  60
  30	  61
  30	  63
  30	  64
  30	  67
  30	  68
  30	  70
  30	  71
  30	  74
  30	  75
  30	  77
  30	  82
  30	  87
  30	  91
  30	  92
  30	  95
  30	  96
  30	 100
  30	 101
  30	 102
  30	 104
  30	 105
  30	 107
  30	 110
  30	 112
  30	 114
  30	 115
  30	 116
  30	 118
  31	  35
  31	  39
  31	  41
  31	  42
  31	  44
  31	  46
  31	  49
  31	  51
  31	  54
  31	  55
  31	  57
  31	  58
  31	  59
  31	  61
  31	  63
  31	  67
  31	  71
  31	  76
  31	  85
  31	  95
  31	  99
  31	 103
  31	 109
  31	 111
  31	 112
  31	 114
  31	 116
  31	 117
  31	 118
  32	  33
  32	  34
  32	  36
  32	  39
  32	  40
  32	  43
  32	  44
  32	  49
  32	  50
  32	  51
  32	  52
  32	  55
  32	  56
  32	  58
  32	  59
  32	  60
  32	  62
  32	  63
  32	  65
  32	  67
  32	  72
  32	  76
  32	  78
  32	  79
  32	  81
  32	  82
  32	  83
  32	  85
  32	  87
  32	  88
  32	  93
  32	  94
  32	  98
  32	 101
  32	 103
  32	 107
  32	 108
  32	 112
  33	  37
  33	  38
  33	  41
  33	  45
  33	  46
  33	  48
  33	  49
  33	  50
  33	  51
  33	  53
  33	  55
  33	  56
  33	  57
  33	  58
  33	  60
  33	  62
  33	  66
  33	  67
  33	  68
  33	  69
  33	  71
  33	  72
  33	  73
  33	  83
  33	  85
  33	  89
  33	  92
  33	  97
  33	 100
  33	 102
  33	 107
  33	 113
  33	 114
  33	 116
  33	 119
  34	  35
  34	  36
  34	  38
  34	  43
  34	  47
  34	  50
  34	  54
  34	  55
  34	  59
  34	  65
  34	  68
  34	  70
  34	  71
  34	  74
  34	  75
  34	  79
  34	  81
  34	  82
  34	  84
  34	  85
  34	  86
  34	  88
  34	  89
  34	  91
  34	  98
  34	 101
  34	 102
  34	 103
  34	 104
  34	 105
  34	 106
  34	 107
  34	 111
  34	 117
  34	 118
  34	 119
  35	  36
  35	  38
  35	  44
  35	  48
  35	  53
  35	  54
  35	  55
  35	  56
  35	  58
  35	  59
  35	  60
  35	  62
  35	  63
  35	  65
  35	  66
  35	  68
  35	  72
  35	  74
  35	  77
  35	  79
  35	  85
  35	  91
  35	  92
  35	  95
  35	  96
  35	  97
  35	  98
  35	 100
  35	 103
  35	 104
  35	 109
  35	 110
  35	 111
  35	 115
  35	 116
  35	 117
  35	 118
  35	 119
  36	  37
  36	  41
  36	  44
  36	  47
  36	  49
  36	  53
  36	  54
  36	  58
  36	  59
  36	  65
  36	  66
  36	  69
  36	  70
  36	  76
  36	  78
  36	  81
  36	  85
  36	  86
  36	  88
  36	  92
  36	 100
  36	 104
  36	 106
  36	 110
  36	 111
  36	 112
  36	 117
  37	  38
  37	  40
  37	  43
  37	  48
  37	  50
  37	  53
  37	  55
  37	  61
  37	  63
  37	  66
  37	  67
  37	  68
  37	  71
  37	  72
  37	  73
  37	  74
  37	  78
  37	  79
  37	  84
  37	  85
  37	  87
  37	  89
  37	  94
  37	  96
  37	 103
  37	 104
  37	 105
  37	 107
  37	 108
  37	 110
  37	 112
  37	 116
  37	 117
  37	 118
  38	  41
  38	  43
  38	  44
  38	  45
  38	  46
  38	  49
  38	  52
  38	  53
  38	  54
  38	  57
  38	  58
  38	  60
  38	  61
  38	  62
  38	  65
  38	  67
  38	  69
  38	  71
  38	  72
  38	  73
  38	  74
  38	  77
  38	  78
  38	  79
  38	  81
  38	  83
  38	  84
  38	  88
  38	  89
  38	  90
  38	  91
  38	  92
  38	  94
  38	  97
  38	 100
  38	 112
  38	 113
  38	 114
  38	 115
  39	  43
  39	  46
  39	  49
  39	  53
  39	  54
  39	  58
  39	  59
  39	  60
  39	  70
  39	  71
  39	  73
  39	  74
  39	  75
  39	  77
  39	  79
  39	  80
  39	  81
  39	  84
  39	  86
  39	  87
  39	  89
  39	  90
  39	  92
  39	  96
  39	  98
  39	 101
  39	 106
  39	 109
  39	 116
  39	 118
  39	 119
  40	  42
  40	  46
  40	  49
  40	  51
  40	  57
  40	  58
  40	  60
  40	  69
  40	  71
  40	  74
  40	  76
  40	  79
  40	  83
  40	  84
  40	  87
  40	  89
  40	  90
  40	  96
  40	  97
  40	  99
  40	 100
  40	 101
  40	 106
  40	 107
  40	 108
  40	 111
  40	 115
  40	 116
  40	 117
  40	 118
  40	 119
  41	  43
  41	  44
  41	  45
  41	  47
  41	  52
  41	  57
  41	  58
  41	  61
  41	  65
  41	  66
  41	  68
  41	  69
  41	  71
  41	  74
  41	  75
  41	  81
  41	  82
  41	  83
  41	  87
  41	  88
  41	  89
  41	  90
  41	  92
  41	  97
  41	  98
  41	 100
  41	 102
  41	 106
  41	 107
  41	 109
  41	 111
  41	 113
  41	 117
  41	 118
  42	  44
  42	  59
  42	  62
  42	  64
  42	  65
  42	  68
  42	  76
  42	  82
  42	  86
  42	  93
  42	  94
  42	  95
  42	  98
  42	 100
  42	 104
  42	 105
  42	 106
  42	 107
  42	 112
  42	 114
  42	 119
  43	  45
  43	  47
  43	  48
  43	  49
  43	  50
  43	  55
  43	  57
  43	  59
  43	  64
  43	  66
  43	  69
  43	  71
  43	  73
  43	  75
  43	  81
  43	  82
  43	  86
  43	  89
  43	  93
  43	 100
  43	 103
  43	 104
  43	 107
  43	 114
  43	 116
  43	 118
  43	 119
  44	  47
  44	  49
  44	  52
  44	  55
  44	  56
  44	  59
  44	  61
  44	  65
  44	  66
  44	  67
  44	  69
  44	  75
  44	  80
  44	  81
  44	  85
  44	  88
  44	  91
  44	  94
  44	  97
  44	  99
  44	 100
  44	 102
  44	 110
  44	 111
  44	 112
  44	 114
  44	 117
  44	 118
  45	  48
  45	  49
  45	  50
  45	  51
  45	  52
  45	  54
  45	  57
  45	  59
  45	  63
  45	  67
  45	  68
  45	  70
  45	  72
  45	  78
  45	  81
  45	  86
  45	  87
  45	  88
  45	  90
  45	  91
  45	  92
  45	  94
  45	  99
  45	 102
  45	 103
  45	 104
  45	 106
  45	 108
  45	 110
  45	 113
  46	  49
  46	  57
  46	  60
  46	  61
  46	  62
  46	  65
  46	  69
  46	  72
  46	  74
  46	  75
  46	  76
  46	  77
  46	  79
  46	  80
  46	  81
  46	  83
  46	  84
  46	  85
  46	  86
  46	  87
  46	  93
  46	  95
  46	  96
  46	  97
  46	  99
  46	 105
  46	 107
  46	 109
  46	 111
  46	 114
  46	 117
  46	 118
  47	  52
  47	  53
  47	  56
  47	  58
  47	  62
  47	  63
  47	  66
  47	  69
  47	  72
  47	  74
  47	  77
  47	  78
  47	  80
  47	  81
  47	  82
  47	  84
  47	  86
  47	  89
  47	  94
  47	  96
  47	  97
  47	 103
  47	 106
  47	 107
  47	 108
  47	 109
  47	 112
  47	 114
  47	 116
  47	 118
  48	  49
  48	  50
  48	  51
  48	  52
  48	  53
  48	  54
  48	  56
  48	  58
  48	  60
  48	  64
  48	  65
  48	  66
  48	  68
  48	  70
  48	  72
  48	  73
  48	  75
  48	  76
  48	  88
  48	  89
  48	  93
  48	  94
  48	  97
  48	  98
  48	 102
  48	 108
  48	 109
  48	 110
  48	 113
  48	 114
  48	 115
  48	 117
  48	 118
  48	 119
  49	  50
  49	  52
  49	  53
  49	  57
  49	  58
  49	  60
  49	  61
  49	  62
  49	  65
  49	  70
  49	  71
  49	  74
  49	  75
  49	  76
  49	  84
  49	  85
  49	  88
  49	  90
  49	  94
  49	  98
  49	 101
  49	 102
  49	 108
  49	 109
  49	 110
  49	 112
  49	 115
  49	 116
  49	 117
  49	 119
  50	  52
  50	  53
  50	  61
  50	  64
  50	  65
  50	  66
  50	  67
  50	  69
  50	  72
  50	  74
  50	  75
  50	  76
  50	  78
  50	  87
  50	  89
  50	  90
  50	  92
  50	  94
  50	  99
  50	 103
  50	 104
  50	 106
  50	 111
  50	 113
  50	 114
  50	 115
  50	 116
  50	 117
  50	 119
  51	  54
  51	  58
  51	  63
  51	  65
  51	  67
  51	  71
  51	  74
  51	  78
  51	  84
  51	  89
  51	  92
  51	  93
  51	  94
  51	  95
  51	  97
  51	  98
  51	 106
  51	 107
  51	 110
  51	 113
  51	 115
  51	 118
  52	  53
  52	  58
  52	  60
  52	  61
  52	  62
  52	  64
  52	  67
  52	  68
  52	  74
  52	  75
  52	  76
  52	  80
  52	  81
  52	  84
  52	  86
  52	  87
  52	  91
  52	  92
  52	 100
  52	 101
  52	 104
  52	 108
  52	 118
  53	  54
  53	  55
  53	  59
  53	  60
  53	  61
  53	  62
  53	  64
  53	  65
  53	  69
  53	  72
  53	  73
  53	  74
  53	  75
  53	  77
  53	  82
  53	  83
  53	  91
  53	  92
  53	  93
  53	  95
  53	  97
  53	 100
  53	 101
  53	 107
  53	 112
  53	 115
  53	 118
  53	 119
  54	  60
  54	  61
  54	  69
  54	  72
  54	  74
  54	  75
  54	  77
  54	  80
  54	  81
  54	  82
  54	  83
  54	  84
  54	  86
  54	  88
  54	  89
  54	  91
  54	  92
  54	  93
  54	  96
  54	  98
  54	 102
  54	 105
  54	 108
  54	 112
  54	 115
  54	 116
  54	 119
  55	  56
  55	  57
  55	  63
  55	  64
  55	  65
  55	  67
  55	  70
  55	  74
  55	  78
  55	  80
  55	  90
  55	  92
  55	  96
  55	  97
  55	 101
  55	 103
  55	 104
  55	 106
  55	 108
  55	 109
  55	 111
  55	 113
  55	 114
  55	 115
  55	 117
  56	  62
  56	  66
  56	  68
  56	  69
  56	  78
  56	  79
  56	  82
  56	  83
  56	  85
  56	  93
  56	  96
  56	  97
  56	 100
  56	 101
  56	 104
  56	 106
  56	 108
  56	 111
  56	 112
  56	 114
  56	 118
  57	  62
  57	  63
  57	  65
  57	  68
  57	  72
  57	  79
  57	  82
  57	  89
  57	  91
  57	  92
  57	  93
  57	  97
  57	  99
  57	 101
  57	 102
  57	 103
  57	 104
  57	 107
  57	 108
  57	 110
  57	 115
  57	 116
  57	 117
  57	 119
  58	  61
  58	  64
  58	  67
  58	  68
  58	  69
  58	  73
  58	  74
  58	  78
  58	  80
  58	  87
  58	  90
  58	  91
  58	  93
  58	  97
  58	  98
  58	 100
  58	 102
  58	 104
  58	 107
  58	 108
  58	 109
  58	 112
  59	  60
  59	  67
  59	  69
  59	  70
  59	  72
  59	  77
  59	  80
  59	  82
  59	  85
  59	  86
  59	  90
  59	  92
  59	  94
  59	 101
  59	 102
  59	 104
  59	 110
  59	 114
  60	  61
  60	  63
  60	  69
  60	  70
  60	  72
  60	  73
  60	  75
  60	  76
  60	  77
  60	  84
  60	  86
  60	  87
  60	  94
  60	  95
  60	  97
  60	  98
  60	 100
  60	 101
  60	 105
  60	 106
  60	 109
  60	 110
  60	 112
  60	 116
  60	 119
  61	  62
  61	  64
  61	  70
  61	  71
  61	  72
  61	  73
  61	  74
  61	  75
  61	  80
  61	  88
  61	  90
  61	  93
  61	  99
  61	 100
  61	 101
  61	 102
  61	 103
  61	 108
  61	 109
  61	 115
  61	 116
  61	 117
  62	  65
  62	  66
  62	  67
  62	  69
  62	  72
  62	  73
  62	  76
  62	  77
  62	  78
  62	  81
  62	  82
  62	  83
  62	  96
  62	  99
  62	 100
  62	 103
  62	 105
  62	 108
  62	 111
  62	 112
  62	 116
  62	 117
  62	 119
  63	  65
  63	  67
  63	  69
  63	  70
  63	  72
  63	  73
  63	  76
  63	  77
  63	  78
  63	  84
  63	  85
  63	  86
  63	  89
  63	  90
  63	  95
  63	  97
  63	  98
  63	 100
  63	 103
  63	 105
  63	 106
  63	 108
  63	 109
  63	 110
  63	 112
  63	 115
  63	 116
  63	 118
  64	  71
  64	  73
  64	  76
  64	  80
  64	  82
  64	  83
  64	  94
  64	  97
  64	 103
  64	 104
  64	 105
  64	 106
  64	 107
  64	 111
  64	 112
  64	 113
  64	 114
  64	 115
  64	 116
  64	 119
  65	  73
  65	  74
  65	  75
  65	  80
  65	  81
  65	  86
  65	  87
  65	  90
  65	  93
  65	  95
  65	  96
  65	  98
  65	  99
  65	 102
  65	 103
  65	 104
  65	 107
  65	 110
  65	 111
  65	 112
  65	 114
  65	 119
  66	  70
  66	  73
  66	  75
  66	  79
  66	  85
  66	  87
  66	  89
  66	  90
  66	  91
  66	  93
  66	  94
  66	  96
  66	  97
  66	 104
  66	 106
  66	 109
  66	 114
  66	 115
  66	 119
  67	  68
  67	  69
  67	  72
  67	  73
  67	  75
  67	  76
  67	  77
  67	  86
  67	  87
  67	  88
  67	  91
  67	  92
  67	  96
  67	  98
  67	  99
  67	 101
  67	 102
  67	 104
  67	 105
  67	 106
  67	 110
  67	 111
  67	 116
  67	 118
  68	  73
  68	  74
  68	  75
  68	  77
  68	  79
  68	  80
  68	  82
  68	  89
  68	  93
  68	  94
  68	  97
  68	 100
  68	 101
  68	 102
  68	 103
  68	 104
  68	 108
  68	 109
  68	 112
  68	 113
  68	 114
  68	 116
  69	  72
  69	  73
  69	  74
  69	  77
  69	  82
  69	  86
  69	  90
  69	  91
  69	  92
  69	  94
  69	  96
  69	  97
  69	  99
  69	 100
  69	 101
  69	 103
  69	 105
  69	 107
  69	 110
  69	 112
  69	 115
  69	 117
  69	 118
  69	 119
  70	  71
  70	  73
  70	  74
  70	  77
  70	  79
  70	  80
  70	  81
  70	  85
  70	  88
  70	  89
  70	  91
  70	  92
  70	  95
  70	 101
  70	 103
  70	 104
  70	 106
  70	 107
  70	 110
  70	 111
  70	 113
  70	 115
  70	 116
  70	 118
  71	  75
  71	  76
  71	  77
  71	  78
  71	  83
  71	  88
  71	  89
  71	  91
  71	  92
  71	  93
  71	  94
  71	  95
  71	  99
  71	 103
  71	 108
  71	 113
  71	 114
  71	 117
  71	 118
  72	  73
  72	  80
  72	  86
  72	  89
  72	  91
  72	  92
  72	  95
  72	  96
  72	  97
  72	 102
  72	 104
  72	 105
  72	 110
  72	 111
  72	 113
  72	 118
  73	  74
  73	  75
  73	  78
  73	  81
  73	  83
  73	  84
  73	  86
  73	  87
  73	  89
  73	  93
  73	 100
  73	 101
  73	 102
  73	 104
  73	 107
  73	 111
  73	 119
  74	  78
  74	  82
  74	  85
  74	  86
  74	  93
  74	  97
  74	  98
  74	  99
  74	 100
  74	 102
  74	 104
  74	 105
  74	 107
  74	 108
  74	 114
  74	 116
  74	 117
  75	  77
  75	  78
  75	  79
  75	  80
  75	  81
  75	  85
  75	  86
  75	  92
  75	  98
  75	 100
  75	 101
  75	 102
  75	 105
  75	 106
  75	 108
  75	 110
  75	 111
  75	 115
  76	  77
  76	  82
  76	  85
  76	  90
  76	  91
  76	  92
  76	  93
  76	  94
  76	  96
  76	 100
  76	 105
  76	 107
  76	 108
  76	 112
  76	 114
  76	 115
  76	 116
  76	 117
  77	  78
  77	  80
  77	  82
  77	  85
  77	  86
  77	  87
  77	  89
  77	  93
  77	  94
  77	  95
  77	  98
  77	  99
  77	 100
  77	 107
  77	 109
  77	 116
  77	 117
  78	  80
  78	  81
  78	  82
  78	  83
  78	  87
  78	  90
  78	  93
  78	  95
  78	  97
  78	  98
  78	 100
  78	 101
  78	 105
  78	 107
  78	 109
  78	 112
  78	 113
  78	 116
  78	 117
  79	  80
  79	  81
  79	  82
  79	  83
  79	  87
  79	  89
  79	  90
  79	  94
  79	  96
  79	 101
  79	 102
  79	 103
  79	 106
  79	 109
  79	 114
  79	 115
  79	 118
  79	 119
  80	  81
  80	  82
  80	  84
  80	  85
  80	  88
  80	  89
  80	  91
  80	  92
  80	  94
  80	  95
  80	  96
  80	 103
  80	 104
  80	 106
  80	 107
  80	 110
  81	  82
  81	  84
  81	  90
  81	  92
  81	  94
  81	  95
  81	 100
  81	 103
  81	 105
  81	 106
  81	 110
  81	 113
  81	 117
  81	 118
  81	 119
  82	  83
  82	  84
  82	  89
  82	  91
  82	  92
  82	 100
  82	 102
  82	 104
  82	 107
  82	 110
  82	 116
  82	 117
  82	 119
  83	  84
  83	  85
  83	  95
  83	 101
  83	 106
  83	 109
  83	 114
  83	 116
  83	 118
  84	  88
  84	  89
  84	  90
  84	  91
  84	  95
  84	  97
  84	  98
  84	 100
  84	 104
  84	 105
  84	 111
  84	 115
  85	  88
  85	  95
  85	  98
  85	 105
  85	 108
  85	 109
  85	 111
  85	 114
  85	 115
  85	 116
  85	 118
  86	  89
  86	  90
  86	  95
  86	  96
  86	  98
  86	  99
  86	 100
  86	 111
  86	 112
  86	 113
  86	 116
  86	 118
  86	 119
  87	  92
  87	  94
  87	  95
  87	 100
  87	 102
  87	 104
  87	 105
  87	 106
  87	 107
  87	 108
  87	 110
  87	 113
  87	 115
  87	 116
  87	 117
  87	 118
  88	  89
  88	  94
  88	  95
  88	  96
  88	 101
  88	 102
  88	 105
  88	 108
  88	 109
  88	 110
  88	 111
  88	 115
  88	 119
  89	  90
  89	  96
  89	  97
  89	 100
  89	 101
  89	 102
  89	 103
  89	 106
  89	 107
  89	 108
  89	 111
  89	 113
  89	 117
  90	 100
  90	 102
  90	 103
  90	 104
  90	 108
  90	 109
  90	 110
  90	 114
  90	 115
  90	 116
  90	 119
  91	  93
  91	  94
  91	  99
  91	 101
  91	 102
  91	 103
  91	 104
  91	 106
  91	 108
  91	 110
  91	 116
  91	 119
  92	  94
  92	 101
  92	 102
  92	 107
  92	 109
  92	 112
  92	 117
  92	 119
  93	  94
  93	  96
  93	  98
  93	  99
  93	 100
  93	 103
  93	 106
  93	 108
  93	 109
  93	 110
  93	 111
  93	 113
  93	 116
  93	 117
  94	  95
  94	  98
  94	 105
  94	 109
  94	 110
  94	 111
  94	 114
  94	 116
  94	 117
  94	 118
  95	  97
  95	 103
  95	 104
  95	 105
  95	 106
  95	 108
  95	 109
  95	 111
  95	 113
  95	 114
  95	 119
  96	  97
  96	 100
  96	 101
  96	 104
  96	 106
  96	 109
  96	 111
  96	 112
  96	 116
  96	 118
  97	  99
  97	 105
  97	 109
  97	 110
  97	 114
  97	 115
  97	 116
  97	 119
  98	  99
  98	 101
  98	 102
  98	 104
  98	 106
  98	 107
  98	 109
  98	 110
  98	 111
  98	 113
  98	 114
  99	 100
  99	 108
  99	 112
  99	 113
  99	 114
  99	 119
 100	 104
 100	 106
 100	 109
 100	 110
 100	 113
 100	 114
 100	 115
 100	 119
 101	 106
 101	 109
 101	 112
 101	 113
 101	 115
 101	 116
 101	 119
 102	 104
 102	 105
 102	 110
 102	 117
 102	 119
 103	 105
 103	 110
 103	 111
 103	 113
 103	 117
 103	 119
 104	 107
 104	 108
 104	 109
 104	 110
 104	 111
 104	 114
 104	 115
 104	 117
 104	 118
 105	 106
 105	 114
 105	 117
 105	 118
 106	 109
 106	 111
 106	 112
 106	 119
 107	 108
 107	 110
 107	 115
 107	 116
 107	 117
 108	 113
 108	 117
 108	 118
 108	 119
 109	 110
 109	 111
 109	 112
 109	 113
 109	 116
 110	 111
 110	 114
 110	 115
 110	 116
 110	 118
 112	 115
 112	 116
 112	 117
 112	 118
 113	 114
 113	 117
 113	 118
 114	 115
 115	 116
 115	 119
 116	 118
 117	 118
;
